! aug-cc-pVTZ aug-cc-pVTZ/C DLPNO-CCSD(T) TightSCF 

%maxcore 1000000


%PAL NPROCS 10 END


* xyz +1 1
H   -0.841770   0.004911   3.501509
H    0.825367   0.004911   3.501509
H   -0.008201  -0.790460   2.244923
H   -0.008201   0.800282   2.244923
N   -0.008201   0.004911   2.897443
*