! B3LYP aug-cc-pVTZ aug-cc-pVTZ/C TightSCF

%maxcore 10000000
%PAL NPROCS 50
END

* xyz +1 1
C   0.0000000  1.3681760  0.0000000
C   1.2215690  0.7016580  0.0000000
C   1.2099480 -0.6916970  0.0000000
C   0.0000000 -1.3880980  0.0000000
C  -1.2099480 -0.6916970  0.0000000
C  -1.2215690  0.7016580  0.0000000
N   0.0000000  2.8391060  0.0000000
O  -1.0829060  3.4144120  0.0000000
O   1.0829060  3.4144120  0.0000000
H   2.1477540  1.2658980  0.0000000
H   2.1526900 -1.2344880  0.0000000
H   0.0000000 -2.4762210  0.0000000
H  -2.1526900 -1.2344880  0.0000000
H  -2.1477540  1.2658980  0.0000000
H   -0.841770   0.004911   3.501509
H    0.825367   0.004911   3.501509
H   -0.008201  -0.790460   2.244923
H   -0.008201   0.800282   2.2449
*